c Generated map
c Size: 12 * 12, weights in range: 1 to 10, walls: False, with ratio 0.0
c dim 1 of 5
c
p sp 144 264
c graph contains 144 nodes and 264 arcs
c
a 1 13 9
a 13 1 9
a 1 2 5
a 2 1 5
a 2 14 1
a 14 2 1
a 2 3 10
a 3 2 10
a 3 15 7
a 15 3 7
a 3 4 2
a 4 3 2
a 4 16 10
a 16 4 10
a 4 5 2
a 5 4 2
a 5 17 1
a 17 5 1
a 5 6 4
a 6 5 4
a 6 18 3
a 18 6 3
a 6 7 9
a 7 6 9
a 7 19 8
a 19 7 8
a 7 8 1
a 8 7 1
a 8 20 5
a 20 8 5
a 8 9 6
a 9 8 6
a 9 21 1
a 21 9 1
a 9 10 9
a 10 9 9
a 10 22 7
a 22 10 7
a 10 11 1
a 11 10 1
a 11 23 1
a 23 11 1
a 11 12 5
a 12 11 5
a 12 24 1
a 24 12 1
a 13 25 1
a 25 13 1
a 13 14 4
a 14 13 4
a 14 26 6
a 26 14 6
a 14 15 10
a 15 14 10
a 15 27 2
a 27 15 2
a 15 16 8
a 16 15 8
a 16 28 3
a 28 16 3
a 16 17 2
a 17 16 2
a 17 29 1
a 29 17 1
a 17 18 8
a 18 17 8
a 18 30 6
a 30 18 6
a 18 19 7
a 19 18 7
a 19 31 1
a 31 19 1
a 19 20 2
a 20 19 2
a 20 32 10
a 32 20 10
a 20 21 4
a 21 20 4
a 21 33 3
a 33 21 3
a 21 22 5
a 22 21 5
a 22 34 1
a 34 22 1
a 22 23 6
a 23 22 6
a 23 35 1
a 35 23 1
a 23 24 3
a 24 23 3
a 24 36 10
a 36 24 10
a 25 37 4
a 37 25 4
a 25 26 7
a 26 25 7
a 26 38 2
a 38 26 2
a 26 27 3
a 27 26 3
a 27 39 1
a 39 27 1
a 27 28 10
a 28 27 10
a 28 40 4
a 40 28 4
a 28 29 3
a 29 28 3
a 29 41 9
a 41 29 9
a 29 30 4
a 30 29 4
a 30 42 10
a 42 30 10
a 30 31 3
a 31 30 3
a 31 43 4
a 43 31 4
a 31 32 3
a 32 31 3
a 32 44 1
a 44 32 1
a 32 33 9
a 33 32 9
a 33 45 7
a 45 33 7
a 33 34 2
a 34 33 2
a 34 46 6
a 46 34 6
a 34 35 7
a 35 34 7
a 35 47 10
a 47 35 10
a 35 36 4
a 36 35 4
a 36 48 2
a 48 36 2
a 37 49 5
a 49 37 5
a 37 38 2
a 38 37 2
a 38 50 1
a 50 38 1
a 38 39 8
a 39 38 8
a 39 51 5
a 51 39 5
a 39 40 3
a 40 39 3
a 40 52 3
a 52 40 3
a 40 41 8
a 41 40 8
a 41 53 1
a 53 41 1
a 41 42 9
a 42 41 9
a 42 54 2
a 54 42 2
a 42 43 2
a 43 42 2
a 43 55 2
a 55 43 2
a 43 44 3
a 44 43 3
a 44 56 7
a 56 44 7
a 44 45 9
a 45 44 9
a 45 57 5
a 57 45 5
a 45 46 4
a 46 45 4
a 46 58 9
a 58 46 9
a 46 47 8
a 47 46 8
a 47 59 4
a 59 47 4
a 47 48 2
a 48 47 2
a 48 60 8
a 60 48 8
a 49 61 8
a 61 49 8
a 49 50 5
a 50 49 5
a 50 62 2
a 62 50 2
a 50 51 5
a 51 50 5
a 51 63 2
a 63 51 2
a 51 52 2
a 52 51 2
a 52 64 2
a 64 52 2
a 52 53 8
a 53 52 8
a 53 65 7
a 65 53 7
a 53 54 4
a 54 53 4
a 54 66 4
a 66 54 4
a 54 55 10
a 55 54 10
a 55 67 1
a 67 55 1
a 55 56 2
a 56 55 2
a 56 68 6
a 68 56 6
a 56 57 5
a 57 56 5
a 57 69 5
a 69 57 5
a 57 58 7
a 58 57 7
a 58 70 9
a 70 58 9
a 58 59 7
a 59 58 7
a 59 71 10
a 71 59 10
a 59 60 9
a 60 59 9
a 60 72 6
a 72 60 6
a 61 73 7
a 73 61 7
a 61 62 8
a 62 61 8
a 62 74 9
a 74 62 9
a 62 63 7
a 63 62 7
a 63 75 3
a 75 63 3
a 63 64 1
a 64 63 1
a 64 76 1
a 76 64 1
a 64 65 8
a 65 64 8
a 65 77 2
a 77 65 2
a 65 66 5
a 66 65 5
a 66 78 2
a 78 66 2
a 66 67 9
a 67 66 9
a 67 79 7
a 79 67 7
a 67 68 2
a 68 67 2
a 68 80 9
a 80 68 9
a 68 69 10
a 69 68 10
a 69 81 9
a 81 69 9
a 69 70 8
a 70 69 8
a 70 82 8
a 82 70 8
a 70 71 6
a 71 70 6
a 71 83 3
a 83 71 3
a 71 72 6
a 72 71 6
a 72 84 1
a 84 72 1
a 73 85 4
a 85 73 4
a 73 74 7
a 74 73 7
a 74 86 8
a 86 74 8
a 74 75 2
a 75 74 2
a 75 87 2
a 87 75 2
a 75 76 10
a 76 75 10
a 76 88 10
a 88 76 10
a 76 77 5
a 77 76 5
a 77 89 3
a 89 77 3
a 77 78 9
a 78 77 9
a 78 90 6
a 90 78 6
a 78 79 10
a 79 78 10
a 79 91 5
a 91 79 5
a 79 80 10
a 80 79 10
a 80 92 7
a 92 80 7
a 80 81 7
a 81 80 7
a 81 93 2
a 93 81 2
a 81 82 8
a 82 81 8
a 82 94 1
a 94 82 1
a 82 83 1
a 83 82 1
a 83 95 5
a 95 83 5
a 83 84 4
a 84 83 4
a 84 96 2
a 96 84 2
a 85 97 7
a 97 85 7
a 85 86 3
a 86 85 3
a 86 98 1
a 98 86 1
a 86 87 4
a 87 86 4
a 87 99 4
a 99 87 4
a 87 88 9
a 88 87 9
a 88 100 7
a 100 88 7
a 88 89 4
a 89 88 4
a 89 101 6
a 101 89 6
a 89 90 6
a 90 89 6
a 90 102 6
a 102 90 6
a 90 91 2
a 91 90 2
a 91 103 2
a 103 91 2
a 91 92 9
a 92 91 9
a 92 104 6
a 104 92 6
a 92 93 1
a 93 92 1
a 93 105 9
a 105 93 9
a 93 94 5
a 94 93 5
a 94 106 10
a 106 94 10
a 94 95 7
a 95 94 7
a 95 107 9
a 107 95 9
a 95 96 1
a 96 95 1
a 96 108 1
a 108 96 1
a 97 109 10
a 109 97 10
a 97 98 8
a 98 97 8
a 98 110 5
a 110 98 5
a 98 99 10
a 99 98 10
a 99 111 8
a 111 99 8
a 99 100 1
a 100 99 1
a 100 112 7
a 112 100 7
a 100 101 10
a 101 100 10
a 101 113 8
a 113 101 8
a 101 102 6
a 102 101 6
a 102 114 8
a 114 102 8
a 102 103 6
a 103 102 6
a 103 115 5
a 115 103 5
a 103 104 10
a 104 103 10
a 104 116 6
a 116 104 6
a 104 105 3
a 105 104 3
a 105 117 7
a 117 105 7
a 105 106 9
a 106 105 9
a 106 118 5
a 118 106 5
a 106 107 3
a 107 106 3
a 107 119 8
a 119 107 8
a 107 108 8
a 108 107 8
a 108 120 3
a 120 108 3
a 109 121 1
a 121 109 1
a 109 110 4
a 110 109 4
a 110 122 8
a 122 110 8
a 110 111 3
a 111 110 3
a 111 123 10
a 123 111 10
a 111 112 7
a 112 111 7
a 112 124 5
a 124 112 5
a 112 113 9
a 113 112 9
a 113 125 1
a 125 113 1
a 113 114 1
a 114 113 1
a 114 126 5
a 126 114 5
a 114 115 6
a 115 114 6
a 115 127 5
a 127 115 5
a 115 116 2
a 116 115 2
a 116 128 8
a 128 116 8
a 116 117 10
a 117 116 10
a 117 129 9
a 129 117 9
a 117 118 5
a 118 117 5
a 118 130 10
a 130 118 10
a 118 119 3
a 119 118 3
a 119 131 1
a 131 119 1
a 119 120 3
a 120 119 3
a 120 132 3
a 132 120 3
a 121 133 10
a 133 121 10
a 121 122 7
a 122 121 7
a 122 134 5
a 134 122 5
a 122 123 10
a 123 122 10
a 123 135 9
a 135 123 9
a 123 124 5
a 124 123 5
a 124 136 8
a 136 124 8
a 124 125 9
a 125 124 9
a 125 137 6
a 137 125 6
a 125 126 3
a 126 125 3
a 126 138 2
a 138 126 2
a 126 127 5
a 127 126 5
a 127 139 9
a 139 127 9
a 127 128 2
a 128 127 2
a 128 140 8
a 140 128 8
a 128 129 7
a 129 128 7
a 129 141 4
a 141 129 4
a 129 130 5
a 130 129 5
a 130 142 10
a 142 130 10
a 130 131 5
a 131 130 5
a 131 143 3
a 143 131 3
a 131 132 3
a 132 131 3
a 132 144 4
a 144 132 4
a 133 134 5
a 134 133 5
a 134 135 3
a 135 134 3
a 135 136 1
a 136 135 1
a 136 137 9
a 137 136 9
a 137 138 4
a 138 137 4
a 138 139 1
a 139 138 1
a 139 140 6
a 140 139 6
a 140 141 1
a 141 140 1
a 141 142 8
a 142 141 8
a 142 143 10
a 143 142 10
a 143 144 8
a 144 143 8
